Normalized Data/p10_8_normalized_splitx10_0.vrp
NAME:p10_8_NORMALIZED_splitx10_
BEST_KNOWN: 0
COMMENT: 0
DIMENSION: 808
CAPACITY: 1000
EDGE_WEIGHT_FORMAT: FUNCTION
EDGE_WEIGHT_TYPE: EXACT_2D
NODE_COORD_SECTION
1 0.00000 0.00000
2 35 11
3 35 11
4 35 11
5 35 11
6 35 11
7 -18 20
8 -18 20
9 -18 20
10 -18 20
11 -18 20
12 -35 -48
13 -35 -48
14 -35 -48
15 -40 15
16 -40 15
17 -40 15
18 -40 15
19 -40 15
20 10 43
21 10 43
22 10 43
23 29 -44
24 29 -44
25 29 -44
26 8 6
27 8 6
28 8 6
29 8 6
30 8 6
31 -48 -29
32 -48 -29
33 -48 -29
34 -39 8
35 -39 8
36 -21 -20
37 -21 -20
38 -21 -20
39 -21 -20
40 -8 47
41 -8 47
42 -8 47
43 33 41
44 33 41
45 33 41
46 33 41
47 33 41
48 33 41
49 33 41
50 8 2
51 8 2
52 8 2
53 8 2
54 31 17
55 31 17
56 -47 39
57 -47 39
58 -47 39
59 -47 39
60 -47 39
61 -47 39
62 -47 39
63 -15 47
64 -15 47
65 -15 47
66 -15 47
67 -9 36
68 -9 36
69 -40 -11
70 -40 -11
71 -40 -11
72 -40 -11
73 -40 -11
74 5 -35
75 5 -35
76 0 47
77 0 47
78 12 -25
79 12 -25
80 12 -25
81 12 -25
82 12 -25
83 3 1
84 3 1
85 -38 -21
86 -38 -21
87 -38 -21
88 -38 -21
89 30 21
90 30 21
91 -37 10
92 -37 10
93 -37 10
94 -37 10
95 7 2
96 7 2
97 7 2
98 7 2
99 7 2
100 7 2
101 7 2
102 -2 29
103 -2 29
104 -2 29
105 19 -13
106 19 -13
107 19 -13
108 -19 6
109 -19 6
110 -19 6
111 -19 6
112 -19 6
113 -19 6
114 -32 19
115 -32 19
116 -32 19
117 6 -21
118 6 -21
119 6 -21
120 6 -21
121 6 -21
122 6 -21
123 24 22
124 24 22
125 24 22
126 24 22
127 -45 -39
128 -45 -39
129 -45 -39
130 -48 25
131 -48 25
132 -7 -36
133 -7 -36
134 -7 -36
135 -7 -36
136 45 -50
137 45 -50
138 45 -50
139 -14 -30
140 -14 -30
141 -14 -30
142 -14 -30
143 -14 -30
144 5 -29
145 5 -29
146 5 -29
147 5 -29
148 5 -29
149 -34 39
150 -34 39
151 39 -46
152 39 -46
153 39 -46
154 -7 11
155 -7 11
156 -7 11
157 -7 11
158 -7 11
159 18 -41
160 18 -41
161 18 -41
162 18 -41
163 18 -41
164 -47 21
165 -47 21
166 -47 21
167 -47 21
168 -16 -11
169 -16 -11
170 -16 -11
171 -16 -11
172 -16 -11
173 17 -6
174 17 -6
175 17 -6
176 17 -6
177 17 -6
178 17 -6
179 17 -6
180 -33 21
181 -33 21
182 -40 1
183 -40 1
184 -40 1
185 -40 1
186 -40 1
187 -40 1
188 39 -36
189 39 -36
190 39 -36
191 39 -36
192 39 -36
193 4 8
194 4 8
195 4 8
196 4 8
197 4 8
198 4 8
199 31 -7
200 31 -7
201 31 -7
202 31 -7
203 37 -14
204 37 -14
205 -50 -11
206 -50 -11
207 -50 -11
208 26 -13
209 26 -13
210 -12 -19
211 -12 -19
212 -12 -19
213 -12 -19
214 -12 -19
215 -12 -19
216 -12 -19
217 16 -36
218 16 -36
219 -39 30
220 -39 30
221 -39 30
222 -38 -47
223 -38 -47
224 -38 -47
225 -38 -47
226 -38 -47
227 -26 14
228 -26 14
229 -26 14
230 -26 14
231 31 12
232 31 12
233 31 12
234 31 12
235 31 12
236 -4 -44
237 -4 -44
238 42 40
239 42 40
240 42 40
241 42 40
242 39 20
243 39 20
244 39 20
245 39 20
246 39 20
247 21 3
248 21 3
249 21 3
250 21 3
251 21 3
252 2 -15
253 2 -15
254 2 -15
255 2 -15
256 2 -15
257 -9 -15
258 -9 -15
259 -9 -15
260 -9 -15
261 -9 -15
262 -9 -15
263 -20 3
264 -20 3
265 -20 3
266 -20 3
267 46 -18
268 46 -18
269 46 -18
270 46 -18
271 46 -18
272 14 -28
273 14 -28
274 14 -28
275 14 -28
276 14 -28
277 -28 -43
278 -28 -43
279 -28 -43
280 -16 -50
281 -23 -17
282 -23 -17
283 -14 38
284 -14 38
285 -14 38
286 -14 38
287 -14 38
288 -14 38
289 -14 38
290 -6 -49
291 -6 -49
292 -6 -49
293 -6 -49
294 4 -43
295 4 -43
296 -15 -3
297 -15 -3
298 -15 -3
299 -15 -3
300 -1 -46
301 -1 -46
302 -1 -46
303 -1 -46
304 15 -11
305 15 -11
306 15 -11
307 15 -11
308 15 -11
309 15 -11
310 15 -11
311 19 22
312 -20 9
313 -20 9
314 -20 9
315 -20 9
316 -20 9
317 -20 9
318 -10 -44
319 -10 -44
320 -10 -44
321 32 42
322 32 42
323 18 -46
324 18 -46
325 18 -46
326 18 -46
327 39 34
328 39 34
329 39 34
330 39 34
331 47 20
332 47 20
333 47 20
334 47 20
335 47 20
336 47 20
337 47 20
338 -4 -45
339 -4 -45
340 -4 -45
341 -33 -13
342 -33 -13
343 -33 -13
344 -33 -13
345 -33 -13
346 -33 -13
347 -46 36
348 -46 36
349 -46 36
350 -46 36
351 -46 36
352 -27 15
353 -27 15
354 -27 15
355 -27 15
356 -27 15
357 -27 15
358 -27 15
359 -22 46
360 -22 46
361 -22 46
362 -22 46
363 -22 46
364 6 17
365 6 17
366 6 17
367 6 17
368 6 17
369 6 17
370 6 17
371 -44 -25
372 -44 -25
373 -44 -25
374 -44 -25
375 -44 -25
376 26 44
377 26 44
378 26 44
379 36 27
380 36 27
381 36 27
382 36 27
383 36 27
384 36 27
385 19 -1
386 19 -1
387 19 -1
388 43 -28
389 43 -28
390 43 -28
391 43 -28
392 5 11
393 5 11
394 -27 24
395 -27 24
396 -27 24
397 -27 24
398 -27 24
399 -17 1
400 -17 1
401 -17 1
402 -17 1
403 -17 1
404 -17 1
405 -39 22
406 -39 22
407 -39 22
408 -39 22
409 46 -40
410 46 -40
411 46 -40
412 46 -40
413 -21 -40
414 -21 -40
415 -21 -40
416 -19 28
417 -19 28
418 -19 28
419 -19 28
420 -19 28
421 7 -37
422 7 -37
423 7 -37
424 18 1
425 18 1
426 18 1
427 18 1
428 18 1
429 18 1
430 23 27
431 23 27
432 23 27
433 23 27
434 23 27
435 -20 25
436 -20 25
437 -20 25
438 -20 25
439 -20 25
440 41 4
441 41 4
442 41 4
443 41 4
444 41 4
445 17 -4
446 17 -4
447 18 -20
448 18 -20
449 18 -20
450 18 -20
451 18 -20
452 18 -20
453 39 -18
454 39 -18
455 39 -18
456 32 49
457 32 49
458 40 -26
459 40 -26
460 40 -26
461 49 -22
462 49 -22
463 31 -35
464 31 -35
465 31 -35
466 27 46
467 27 46
468 27 46
469 27 46
470 -28 -40
471 -28 -40
472 -28 -40
473 -28 -40
474 -28 -40
475 9 4
476 9 4
477 9 4
478 9 4
479 -32 -43
480 -32 -43
481 -32 -43
482 -32 -43
483 -32 -43
484 -32 -43
485 25 -38
486 25 -38
487 25 -38
488 25 -38
489 29 44
490 -26 -13
491 -26 -13
492 -26 -13
493 -26 -13
494 44 -36
495 44 -36
496 -43 -33
497 -43 -33
498 -43 -33
499 -43 -33
500 -43 -33
501 -41 -24
502 -41 -24
503 -41 -24
504 -41 -24
505 17 -11
506 17 -11
507 17 -11
508 17 -11
509 17 -11
510 17 -11
511 36 -2
512 36 -2
513 36 -2
514 36 -2
515 36 -2
516 -22 -16
517 -22 -16
518 -22 -16
519 25 13
520 25 13
521 25 13
522 25 13
523 25 13
524 -10 17
525 -10 17
526 -10 17
527 -10 17
528 -10 17
529 -19 19
530 -19 19
531 -19 19
532 -19 19
533 -19 19
534 20 -11
535 20 -11
536 43 49
537 43 49
538 43 49
539 43 49
540 43 49
541 43 49
542 46 -34
543 46 -34
544 46 -34
545 46 -34
546 -17 -25
547 -17 -25
548 -17 -25
549 -15 -9
550 -15 -9
551 -15 -9
552 32 22
553 32 22
554 32 22
555 32 22
556 32 22
557 32 22
558 40 35
559 40 35
560 40 35
561 40 35
562 -35 -10
563 -35 -10
564 -35 -10
565 -35 -10
566 -35 -10
567 -18 -7
568 -18 -7
569 -18 -7
570 -18 -7
571 38 -47
572 38 -47
573 38 -47
574 38 -47
575 -4 -31
576 -4 -31
577 -4 -31
578 -4 -31
579 -4 -31
580 -4 -31
581 -22 -32
582 -22 -32
583 -22 -32
584 -19 -17
585 -19 -17
586 -19 -17
587 -19 -17
588 -19 -17
589 -19 -17
590 -48 -11
591 -48 -11
592 -22 -8
593 -22 -8
594 44 26
595 44 26
596 44 26
597 44 26
598 44 26
599 44 26
600 37 18
601 37 18
602 37 18
603 37 18
604 37 18
605 49 -8
606 49 -8
607 49 -8
608 49 -8
609 49 -8
610 49 -40
611 49 -40
612 49 -40
613 50 -1
614 50 -1
615 50 -1
616 -3 6
617 -3 6
618 -37 -21
619 -37 -21
620 -37 -21
621 -24 33
622 -24 33
623 -24 33
624 -12 -13
625 -12 -13
626 -12 -13
627 -12 -13
628 -12 -13
629 -12 -13
630 -12 -13
631 -16 -35
632 -16 -35
633 -16 -35
634 -16 -35
635 -16 -35
636 -16 -35
637 -25 -49
638 -43 -12
639 -43 -12
640 -43 -12
641 35 -22
642 35 -22
643 35 -22
644 35 -22
645 35 -22
646 -42 -35
647 -42 -35
648 -42 -35
649 -42 -35
650 -42 -35
651 48 0
652 48 0
653 48 0
654 -48 -21
655 -48 -21
656 -48 -21
657 -48 -21
658 -48 -21
659 -13 -10
660 -13 -10
661 -13 -10
662 -13 -10
663 -13 -10
664 -29 -24
665 -29 -24
666 -29 -24
667 -29 -24
668 -29 -24
669 -14 -26
670 -14 -26
671 -14 -26
672 -14 -26
673 -14 -26
674 21 13
675 21 13
676 21 13
677 32 -25
678 32 -25
679 32 -25
680 32 -25
681 32 -25
682 32 -25
683 10 -35
684 10 -35
685 10 -35
686 10 14
687 10 14
688 10 14
689 10 14
690 10 14
691 -35 18
692 -35 18
693 -34 -42
694 -34 -42
695 -34 -42
696 -34 -42
697 -34 -42
698 -34 -42
699 -46 -26
700 -46 -26
701 -46 -26
702 -46 -26
703 -46 -26
704 -42 19
705 -42 19
706 -42 19
707 -42 19
708 9 7
709 9 7
710 9 7
711 10 47
712 10 47
713 46 14
714 46 14
715 46 14
716 46 14
717 46 14
718 46 14
719 -31 -16
720 -31 -16
721 -31 -16
722 32 18
723 32 18
724 32 18
725 32 18
726 11 -16
727 11 -16
728 11 -16
729 11 -16
730 11 -16
731 11 -16
732 -19 -10
733 -19 -10
734 -19 -10
735 -19 -10
736 -2 -27
737 -2 -27
738 -2 -27
739 44 -43
740 44 -43
741 15 -50
742 15 -50
743 15 -50
744 -4 -45
745 -4 -45
746 -4 -45
747 -4 -45
748 -4 -45
749 -4 -45
750 2 -14
751 2 -14
752 2 -14
753 31 30
754 31 30
755 31 30
756 31 30
757 33 -5
758 33 -5
759 33 -5
760 33 -5
761 33 -5
762 40 15
763 40 15
764 31 39
765 31 39
766 31 39
767 31 39
768 31 39
769 31 39
770 12 46
771 12 46
772 12 46
773 12 46
774 17 35
775 17 35
776 17 35
777 17 35
778 5 40
779 5 40
780 5 40
781 -14 -43
782 -14 -43
783 -14 -43
784 -14 -43
785 -14 -43
786 -14 -43
787 32 -50
788 32 -50
789 32 -50
790 -35 -46
791 -35 -46
792 -35 -46
793 5 -1
794 5 -1
795 5 -1
796 5 -1
797 9 50
798 9 50
799 -8 25
800 -8 25
801 -8 25
802 -8 25
803 7 -1
804 7 -1
805 7 -1
806 26 20
807 26 20
808 26 20
DEMAND_SECTION
1 0
2 200
3 10
4 10
5 10
6 10
7 200
8 200
9 10
10 10
11 10
12 200
13 200
14 10
15 100
16 10
17 10
18 10
19 10
20 200
21 100
22 10
23 200
24 100
25 10
26 200
27 100
28 50
29 10
30 10
31 200
32 50
33 10
34 100
35 50
36 200
37 200
38 10
39 10
40 200
41 50
42 10
43 200
44 100
45 50
46 10
47 10
48 10
49 10
50 100
51 10
52 10
53 10
54 200
55 10
56 200
57 100
58 50
59 10
60 10
61 10
62 10
63 200
64 10
65 10
66 10
67 200
68 200
69 100
70 10
71 10
72 10
73 10
74 200
75 50
76 200
77 200
78 200
79 200
80 50
81 10
82 10
83 200
84 50
85 200
86 100
87 50
88 10
89 200
90 50
91 200
92 10
93 10
94 10
95 200
96 100
97 50
98 10
99 10
100 10
101 10
102 200
103 200
104 10
105 200
106 50
107 10
108 200
109 200
110 10
111 10
112 10
113 10
114 200
115 100
116 10
117 200
118 50
119 10
120 10
121 10
122 10
123 100
124 50
125 10
126 10
127 200
128 10
129 10
130 100
131 50
132 200
133 100
134 50
135 10
136 200
137 100
138 10
139 200
140 50
141 10
142 10
143 10
144 200
145 200
146 10
147 10
148 10
149 200
150 10
151 200
152 50
153 10
154 200
155 200
156 50
157 10
158 10
159 100
160 50
161 10
162 10
163 10
164 200
165 200
166 50
167 10
168 100
169 50
170 10
171 10
172 10
173 200
174 100
175 50
176 10
177 10
178 10
179 10
180 100
181 50
182 200
183 200
184 10
185 10
186 10
187 10
188 200
189 200
190 10
191 10
192 10
193 200
194 200
195 10
196 10
197 10
198 10
199 200
200 10
201 10
202 10
203 200
204 10
205 200
206 200
207 50
208 100
209 50
210 200
211 100
212 50
213 10
214 10
215 10
216 10
217 200
218 200
219 200
220 100
221 50
222 200
223 200
224 50
225 10
226 10
227 100
228 10
229 10
230 10
231 200
232 50
233 10
234 10
235 10
236 200
237 200
238 200
239 200
240 10
241 10
242 200
243 200
244 10
245 10
246 10
247 200
248 100
249 50
250 10
251 10
252 200
253 100
254 10
255 10
256 10
257 200
258 100
259 50
260 10
261 10
262 10
263 200
264 200
265 10
266 10
267 200
268 100
269 50
270 10
271 10
272 200
273 200
274 10
275 10
276 10
277 200
278 200
279 100
280 200
281 200
282 100
283 200
284 200
285 50
286 10
287 10
288 10
289 10
290 200
291 100
292 10
293 10
294 100
295 50
296 100
297 50
298 10
299 10
300 200
301 100
302 50
303 10
304 200
305 200
306 50
307 10
308 10
309 10
310 10
311 200
312 200
313 50
314 10
315 10
316 10
317 10
318 200
319 100
320 50
321 200
322 10
323 200
324 200
325 50
326 10
327 200
328 200
329 10
330 10
331 200
332 100
333 50
334 10
335 10
336 10
337 10
338 200
339 10
340 10
341 200
342 50
343 10
344 10
345 10
346 10
347 200
348 50
349 10
350 10
351 10
352 200
353 100
354 50
355 10
356 10
357 10
358 10
359 200
360 200
361 50
362 10
363 10
364 200
365 100
366 50
367 10
368 10
369 10
370 10
371 200
372 200
373 50
374 10
375 10
376 200
377 10
378 10
379 200
380 100
381 10
382 10
383 10
384 10
385 200
386 100
387 50
388 200
389 50
390 10
391 10
392 200
393 200
394 200
395 10
396 10
397 10
398 10
399 200
400 100
401 10
402 10
403 10
404 10
405 200
406 10
407 10
408 10
409 100
410 10
411 10
412 10
413 200
414 200
415 10
416 200
417 50
418 10
419 10
420 10
421 200
422 200
423 10
424 200
425 100
426 10
427 10
428 10
429 10
430 100
431 50
432 10
433 10
434 10
435 200
436 100
437 50
438 10
439 10
440 100
441 10
442 10
443 10
444 10
445 200
446 50
447 200
448 200
449 50
450 10
451 10
452 10
453 200
454 200
455 10
456 100
457 50
458 200
459 200
460 10
461 200
462 200
463 200
464 50
465 10
466 200
467 200
468 10
469 10
470 200
471 200
472 50
473 10
474 10
475 200
476 50
477 10
478 10
479 200
480 100
481 50
482 10
483 10
484 10
485 200
486 200
487 50
488 10
489 200
490 200
491 200
492 10
493 10
494 200
495 100
496 100
497 10
498 10
499 10
500 10
501 200
502 200
503 50
504 10
505 200
506 100
507 50
508 10
509 10
510 10
511 200
512 10
513 10
514 10
515 10
516 100
517 50
518 10
519 100
520 10
521 10
522 10
523 10
524 200
525 100
526 50
527 10
528 10
529 200
530 200
531 10
532 10
533 10
534 200
535 10
536 200
537 200
538 10
539 10
540 10
541 10
542 200
543 50
544 10
545 10
546 200
547 200
548 50
549 200
550 200
551 100
552 200
553 50
554 10
555 10
556 10
557 10
558 200
559 200
560 50
561 10
562 200
563 50
564 10
565 10
566 10
567 200
568 200
569 10
570 10
571 100
572 50
573 10
574 10
575 200
576 100
577 10
578 10
579 10
580 10
581 200
582 50
583 10
584 200
585 200
586 10
587 10
588 10
589 10
590 100
591 50
592 200
593 100
594 200
595 100
596 50
597 10
598 10
599 10
600 200
601 200
602 10
603 10
604 10
605 100
606 50
607 10
608 10
609 10
610 200
611 50
612 10
613 200
614 50
615 10
616 200
617 200
618 200
619 50
620 10
621 200
622 200
623 10
624 200
625 200
626 50
627 10
628 10
629 10
630 10
631 200
632 100
633 10
634 10
635 10
636 10
637 200
638 100
639 50
640 10
641 100
642 10
643 10
644 10
645 10
646 200
647 50
648 10
649 10
650 10
651 200
652 100
653 50
654 100
655 10
656 10
657 10
658 10
659 200
660 10
661 10
662 10
663 10
664 200
665 200
666 10
667 10
668 10
669 200
670 50
671 10
672 10
673 10
674 200
675 50
676 10
677 200
678 200
679 50
680 10
681 10
682 10
683 200
684 200
685 50
686 200
687 100
688 50
689 10
690 10
691 200
692 10
693 100
694 50
695 10
696 10
697 10
698 10
699 200
700 50
701 10
702 10
703 10
704 200
705 50
706 10
707 10
708 200
709 100
710 50
711 100
712 50
713 200
714 200
715 10
716 10
717 10
718 10
719 200
720 200
721 100
722 200
723 100
724 50
725 10
726 200
727 50
728 10
729 10
730 10
731 10
732 200
733 50
734 10
735 10
736 100
737 50
738 10
739 200
740 100
741 200
742 200
743 10
744 200
745 200
746 50
747 10
748 10
749 10
750 200
751 10
752 10
753 200
754 100
755 50
756 10
757 200
758 200
759 10
760 10
761 10
762 200
763 100
764 100
765 50
766 10
767 10
768 10
769 10
770 200
771 100
772 50
773 10
774 200
775 50
776 10
777 10
778 200
779 200
780 50
781 200
782 50
783 10
784 10
785 10
786 10
787 200
788 100
789 50
790 200
791 100
792 50
793 200
794 10
795 10
796 10
797 200
798 200
799 200
800 200
801 10
802 10
803 200
804 50
805 10
806 200
807 100
808 50
DEPOT_SECTION
1
-1
EOF