Normalized Data/p10_8_normalized_splitx10_0.sol
807 -3 5 2 4 1 717 714 712 716 713 715 762 761 -16 17 15 14 18 163 164 706 703 690 691 354 357 355 -21 19 20 772 769 777 778 779 -25 29 28 26 27 707 708 709 475 474 476 477 -37 36 35 38 663 667 666 664 665 588 587 585 168 170 171 169 -39 41 40 63 64 62 65 360 362 359 358 361 801 800 -50 52 51 442 439 441 443 440 651 652 650 612 614 613 608 606 604 605 607 -66 67 284 282 283 285 287 286 288 416 419 437 438 532 531 -80 78 81 77 79 272 274 273 275 271 118 117 -82 83 98 99 94 96 95 97 100 49 792 794 795 793 -85 87 503 502 370 374 371 701 702 700 698 699 654 653 656 655 657 -91 92 90 93 34 33 182 183 185 184 181 186 -101 102 799 798 523 -103 76 75 797 796 710 711 -107 311 316 314 313 154 153 156 157 155 -109 111 108 112 110 265 264 262 263 402 399 398 401 403 400 -116 119 120 121 143 144 145 146 147 255 251 254 252 253 -124 122 378 380 383 381 382 243 242 241 245 244 600 601 -140 142 633 634 631 632 635 782 784 783 780 785 781 279 318 317 319 -159 787 788 786 23 22 24 487 484 486 449 451 -161 160 162 158 322 324 323 325 740 742 741 -167 517 515 516 280 281 584 583 586 659 661 -178 174 176 177 173 175 172 445 444 804 803 802 -179 180 114 113 115 356 352 351 353 226 227 229 315 312 -191 190 189 188 187 494 493 387 390 388 389 -192 392 391 615 616 -195 193 194 196 197 368 367 369 363 366 364 365 689 688 686 687 685 -201 199 198 200 756 759 758 760 757 511 512 513 514 510 385 -203 202 268 267 269 266 270 460 461 -220 57 60 55 59 58 56 61 347 348 346 349 350 129 130 166 165 704 705 -228 406 407 405 404 218 219 148 149 396 394 393 395 397 -233 230 232 231 234 721 724 722 723 54 53 519 518 521 522 520 -236 235 747 746 302 301 299 300 293 294 684 -237 240 239 238 536 537 540 539 535 538 48 43 45 765 767 -257 215 209 213 214 212 211 210 545 546 547 -261 259 258 256 260 629 625 627 626 628 623 624 658 660 662 -277 278 276 471 470 469 472 473 -291 289 290 292 748 339 743 745 744 338 337 -297 295 298 296 566 568 569 567 548 549 -305 306 307 303 308 309 304 106 105 104 504 506 -310 430 432 429 433 431 123 125 807 805 806 675 673 -326 327 329 328 559 560 557 558 379 556 553 -345 342 637 639 638 206 205 204 589 590 70 72 69 68 71 565 563 564 562 -386 384 248 250 247 249 246 423 428 425 427 424 426 -422 421 420 74 73 574 578 579 575 577 576 -436 434 435 622 621 620 418 415 417 526 -448 450 446 447 730 725 728 726 729 727 750 751 749 -463 462 464 150 151 152 135 137 136 572 570 573 571 -478 482 479 480 483 481 790 223 224 222 221 225 693 -485 217 216 683 682 -488 455 456 320 321 46 47 42 44 763 766 768 764 -496 495 498 499 497 649 648 646 647 645 126 128 127 31 32 30 372 373 619 -509 505 508 507 453 454 452 208 207 534 533 -527 524 525 6 8 9 7 10 529 530 528 -550 719 718 343 340 344 341 561 -582 580 581 413 412 414 630 670 669 671 -592 591 490 492 491 489 734 732 731 733 -597 594 593 598 596 595 336 331 333 330 334 332 335 602 603 599 -618 617 500 501 86 84 720 -636 13 12 11 791 789 695 697 692 696 694 -642 644 641 541 542 543 544 609 610 611 411 409 408 410 738 739 -643 640 457 459 458 679 680 676 681 678 677 -668 672 141 139 138 131 133 132 134 737 735 736 -674 89 88 555 554 551 552 755 752 754 753 776 774 -770 771 466 465 468 467 377 376 375 773 775 0 





OBJ=
5625.225
BEST_KNOWN=
0.000